param n := 250;
param c := 1500
param : V : p w :=
   0	  48	  38
   1	  70	  60
   2	  63	  53
   3	  65	  55
   4	 100	  90
   5	  58	  48
   6	  65	  55
   7	  67	  57
   8	  69	  59
   9	  35	  25
  10	  61	  51
  11	  32	  22
  12	  53	  43
  13	  41	  31
  14	  62	  52
  15	  99	  89
  16	 106	  96
  17	  68	  58
  18	  73	  63
  19	  37	  27
  20	  56	  46
  21	  53	  43
  22	  40	  30
  23	  54	  44
  24	  81	  71
  25	  76	  66
  26	  74	  64
  27	  38	  28
  28	  93	  83
  29	  98	  88
  30	  52	  42
  31	 102	  92
  32	 105	  95
  33	  46	  36
  34	  34	  24
  35	  72	  62
  36	  54	  44
  37	  92	  82
  38	  69	  59
  39	  41	  31
  40	 106	  96
  41	  54	  44
  42	  71	  61
  43	  88	  78
  44	  82	  72
  45	  72	  62
  46	  86	  76
  47	  75	  65
  48	  32	  22
  49	  51	  41
  50	  37	  27
  51	  95	  85
  52	  90	  80
  53	  82	  72
  54	 110	 100
  55	  39	  29
  56	  37	  27
  57	  53	  43
  58	  93	  83
  59	  42	  32
  60	  43	  33
  61	  63	  53
  62	 105	  95
  63	 109	  99
  64	  30	  20
  65	  33	  23
  66	  82	  72
  67	  60	  50
  68	  60	  50
  69	  37	  27
  70	  99	  89
  71	  63	  53
  72	  85	  75
  73	  91	  81
  74	  44	  34
  75	  37	  27
  76	  79	  69
  77	  58	  48
  78	  94	  84
  79	  47	  37
  80	  79	  69
  81	  64	  54
  82	  61	  51
  83	  59	  49
  84	  59	  49
  85	  64	  54
  86	 110	 100
  87	  65	  55
  88	  55	  45
  89	  93	  83
  90	  71	  61
  91	 106	  96
  92	 101	  91
  93	  47	  37
  94	  63	  53
  95	  86	  76
  96	  60	  50
  97	  76	  66
  98	  80	  70
  99	  97	  87
 100	 102	  92
 101	  45	  35
 102	  63	  53
 103	 105	  95
 104	  57	  47
 105	  66	  56
 106	  65	  55
 107	  96	  86
 108	  42	  32
 109	 109	  99
 110	  93	  83
 111	  98	  88
 112	  51	  41
 113	  73	  63
 114	  87	  77
 115	  70	  60
 116	  76	  66
 117	  63	  53
 118	  89	  79
 119	  91	  81
 120	 106	  96
 121	  44	  34
 122	 109	  99
 123	  57	  47
 124	  84	  74
 125	  97	  87
 126	  54	  44
 127	  87	  77
 128	  62	  52
 129	 109	  99
 130	  79	  69
 131	  74	  64
 132	 104	  94
 133	  48	  38
 134	  79	  69
 135	  71	  61
 136	 108	  98
 137	  50	  40
 138	  94	  84
 139	  99	  89
 140	  59	  49
 141	  74	  64
 142	  63	  53
 143	  51	  41
 144	  44	  34
 145	  95	  85
 146	  45	  35
 147	  65	  55
 148	  71	  61
 149	  78	  68
 150	 110	 100
 151	  85	  75
 152	 108	  98
 153	  46	  36
 154	  54	  44
 155	  67	  57
 156	  34	  24
 157	  70	  60
 158	  55	  45
 159	  58	  48
 160	  70	  60
 161	 104	  94
 162	  81	  71
 163	  80	  70
 164	  74	  64
 165	  72	  62
 166	 103	  93
 167	  30	  20
 168	  79	  69
 169	  47	  37
 170	  73	  63
 171	  71	  61
 172	  36	  26
 173	  64	  54
 174	  99	  89
 175	  56	  46
 176	  64	  54
 177	  60	  50
 178	  42	  32
 179	  81	  71
 180	  72	  62
 181	  50	  40
 182	  36	  26
 183	  69	  59
 184	  72	  62
 185	  37	  27
 186	  70	  60
 187	  60	  50
 188	  84	  74
 189	  44	  34
 190	  50	  40
 191	  80	  70
 192	  66	  56
 193	  33	  23
 194	  76	  66
 195	  67	  57
 196	  53	  43
 197	  55	  45
 198	  75	  65
 199	  35	  25
 200	  92	  82
 201	  92	  82
 202	  47	  37
 203	  76	  66
 204	  57	  47
 205	  54	  44
 206	 104	  94
 207	  33	  23
 208	  34	  24
 209	  61	  51
 210	 110	 100
 211	  32	  22
 212	  35	  25
 213	  61	  51
 214	 105	  95
 215	  68	  58
 216	 107	  97
 217	  40	  30
 218	  89	  79
 219	  33	  23
 220	  63	  53
 221	  90	  80
 222	  30	  20
 223	  75	  65
 224	  74	  64
 225	  31	  21
 226	  36	  26
 227	 110	 100
 228	  91	  81
 229	 108	  98
 230	  80	  70
 231	  95	  85
 232	 102	  92
 233	 107	  97
 234	  96	  86
 235	  81	  71
 236	 101	  91
 237	  39	  29
 238	  73	  63
 239	  44	  34
 240	  77	  67
 241	  33	  23
 242	  43	  33
 243	  99	  89
 244	 104	  94
 245	  57	  47
 246	 110	 100
 247	  47	  37
 248	  50	  40
 249	  68	  58
;

set E :=
   0	  11
   0	  15
   0	  21
   0	  46
   0	  61
   0	  63
   0	  66
   0	  75
   0	  78
   0	  94
   0	 103
   0	 106
   0	 112
   0	 129
   0	 141
   0	 148
   0	 150
   0	 151
   0	 168
   0	 182
   0	 188
   0	 201
   0	 210
   0	 220
   1	   2
   1	  10
   1	  23
   1	  30
   1	  36
   1	  40
   1	  68
   1	  69
   1	  73
   1	  77
   1	  87
   1	  98
   1	 121
   1	 145
   1	 155
   1	 159
   1	 166
   1	 175
   1	 178
   1	 181
   1	 229
   1	 247
   2	  13
   2	  15
   2	  29
   2	  32
   2	  37
   2	  53
   2	  71
   2	  76
   2	  91
   2	 104
   2	 124
   2	 134
   2	 136
   2	 139
   2	 192
   2	 193
   2	 210
   2	 223
   2	 224
   2	 225
   2	 240
   2	 249
   3	   8
   3	  50
   3	  53
   3	  87
   3	  95
   3	  99
   3	 120
   3	 126
   3	 134
   3	 139
   3	 159
   3	 168
   3	 210
   3	 212
   3	 214
   3	 219
   3	 223
   3	 230
   3	 233
   3	 246
   4	  10
   4	  20
   4	  22
   4	  24
   4	  47
   4	  52
   4	  54
   4	  57
   4	  65
   4	  84
   4	 108
   4	 119
   4	 126
   4	 133
   4	 159
   4	 165
   4	 187
   4	 207
   4	 208
   4	 211
   4	 227
   4	 232
   4	 238
   4	 249
   5	  21
   5	  44
   5	  64
   5	  65
   5	  85
   5	  90
   5	 100
   5	 104
   5	 138
   5	 139
   5	 144
   5	 148
   5	 157
   5	 173
   5	 179
   5	 180
   5	 196
   5	 207
   5	 218
   5	 223
   5	 227
   6	  25
   6	  27
   6	  38
   6	  43
   6	  45
   6	  48
   6	  63
   6	  88
   6	  97
   6	 114
   6	 135
   6	 139
   6	 155
   6	 181
   6	 182
   6	 189
   6	 197
   6	 210
   6	 213
   6	 228
   6	 239
   7	  13
   7	  22
   7	  29
   7	  31
   7	  36
   7	  38
   7	  41
   7	  47
   7	  50
   7	  56
   7	  83
   7	  84
   7	  93
   7	 101
   7	 103
   7	 121
   7	 127
   7	 130
   7	 131
   7	 134
   7	 142
   7	 144
   7	 151
   7	 156
   7	 168
   7	 175
   7	 178
   7	 183
   7	 189
   7	 191
   7	 194
   7	 196
   7	 219
   7	 248
   8	  13
   8	  56
   8	  80
   8	  86
   8	  87
   8	  93
   8	 110
   8	 112
   8	 125
   8	 128
   8	 129
   8	 168
   8	 182
   8	 188
   8	 190
   8	 210
   8	 228
   8	 231
   8	 234
   8	 236
   8	 237
   8	 245
   8	 248
   8	 249
   9	  11
   9	  21
   9	  22
   9	  31
   9	  42
   9	  45
   9	  48
   9	  55
   9	  91
   9	 111
   9	 118
   9	 124
   9	 127
   9	 149
   9	 161
   9	 193
   9	 198
   9	 201
   9	 209
   9	 222
   9	 230
   9	 232
   9	 239
   9	 240
  10	  11
  10	  12
  10	  18
  10	  39
  10	  56
  10	  66
  10	  75
  10	  81
  10	  84
  10	  86
  10	 112
  10	 115
  10	 121
  10	 133
  10	 155
  10	 180
  10	 186
  10	 193
  10	 194
  10	 208
  10	 229
  10	 231
  10	 235
  10	 240
  10	 244
  10	 245
  10	 247
  10	 249
  11	  26
  11	  27
  11	  48
  11	  77
  11	 105
  11	 112
  11	 123
  11	 134
  11	 141
  11	 144
  11	 147
  11	 159
  11	 160
  11	 166
  11	 191
  11	 195
  11	 204
  11	 219
  11	 239
  11	 248
  12	  14
  12	  16
  12	  23
  12	  24
  12	  48
  12	  50
  12	  56
  12	  58
  12	  64
  12	  70
  12	  72
  12	 101
  12	 104
  12	 107
  12	 111
  12	 112
  12	 121
  12	 123
  12	 130
  12	 137
  12	 148
  12	 160
  12	 167
  12	 179
  12	 183
  12	 190
  12	 207
  12	 220
  12	 232
  13	  15
  13	  18
  13	  27
  13	  53
  13	  75
  13	  95
  13	 100
  13	 112
  13	 121
  13	 123
  13	 124
  13	 137
  13	 138
  13	 140
  13	 144
  13	 145
  13	 146
  13	 148
  13	 165
  13	 170
  13	 177
  13	 193
  13	 202
  13	 211
  13	 212
  13	 216
  13	 227
  13	 230
  13	 243
  14	  55
  14	  60
  14	  62
  14	  84
  14	 101
  14	 106
  14	 107
  14	 116
  14	 126
  14	 134
  14	 135
  14	 144
  14	 149
  14	 169
  14	 178
  14	 180
  14	 189
  14	 194
  14	 197
  14	 198
  14	 210
  14	 225
  14	 226
  14	 237
  14	 249
  15	  17
  15	  30
  15	  32
  15	  48
  15	  49
  15	  55
  15	  83
  15	 135
  15	 150
  15	 170
  15	 174
  15	 186
  15	 191
  15	 204
  15	 206
  15	 237
  15	 249
  16	  24
  16	  39
  16	  77
  16	  92
  16	  98
  16	 108
  16	 119
  16	 122
  16	 128
  16	 170
  16	 171
  16	 172
  16	 198
  16	 205
  16	 218
  16	 219
  16	 235
  16	 239
  16	 243
  17	  23
  17	  38
  17	  47
  17	  51
  17	  52
  17	  64
  17	  68
  17	  73
  17	  79
  17	  98
  17	 136
  17	 145
  17	 156
  17	 161
  17	 166
  17	 173
  17	 176
  17	 181
  17	 183
  17	 186
  17	 196
  17	 204
  17	 207
  17	 209
  17	 224
  17	 243
  17	 245
  18	  30
  18	  39
  18	  42
  18	  44
  18	  98
  18	  99
  18	 113
  18	 115
  18	 116
  18	 118
  18	 122
  18	 143
  18	 145
  18	 211
  18	 241
  18	 248
  19	  20
  19	  23
  19	  37
  19	  40
  19	  50
  19	  51
  19	  60
  19	  70
  19	  78
  19	  88
  19	  91
  19	  97
  19	 116
  19	 118
  19	 122
  19	 139
  19	 143
  19	 144
  19	 157
  19	 164
  19	 175
  19	 176
  19	 188
  19	 195
  19	 200
  19	 203
  19	 206
  19	 207
  19	 214
  19	 221
  19	 226
  19	 234
  19	 238
  19	 241
  20	  23
  20	  25
  20	  28
  20	  36
  20	  54
  20	  84
  20	  89
  20	  98
  20	 106
  20	 135
  20	 153
  20	 155
  20	 162
  20	 168
  20	 178
  20	 180
  20	 194
  20	 202
  20	 205
  20	 241
  21	  42
  21	  43
  21	  55
  21	  76
  21	  79
  21	  82
  21	  88
  21	 121
  21	 135
  21	 141
  21	 148
  21	 164
  21	 166
  21	 170
  21	 180
  21	 185
  21	 200
  21	 213
  21	 216
  21	 220
  21	 224
  21	 230
  21	 243
  21	 246
  22	  29
  22	  40
  22	  56
  22	  60
  22	  62
  22	 106
  22	 126
  22	 133
  22	 144
  22	 154
  22	 188
  22	 194
  22	 201
  22	 222
  22	 223
  22	 234
  22	 239
  22	 248
  23	  29
  23	  35
  23	  54
  23	  63
  23	  76
  23	  78
  23	  80
  23	  81
  23	  86
  23	  90
  23	  98
  23	 101
  23	 102
  23	 108
  23	 112
  23	 122
  23	 139
  23	 140
  23	 176
  23	 188
  23	 189
  23	 193
  23	 208
  23	 218
  23	 219
  23	 221
  23	 222
  23	 231
  23	 238
  23	 244
  23	 248
  24	  26
  24	  37
  24	  50
  24	  51
  24	  61
  24	  63
  24	  67
  24	  96
  24	 111
  24	 122
  24	 131
  24	 141
  24	 146
  24	 154
  24	 155
  24	 165
  24	 167
  24	 193
  24	 194
  24	 208
  24	 216
  24	 219
  24	 241
  25	  29
  25	  52
  25	  66
  25	  81
  25	 113
  25	 117
  25	 138
  25	 144
  25	 149
  25	 150
  25	 190
  25	 225
  25	 238
  25	 246
  26	  31
  26	  33
  26	  57
  26	  74
  26	  78
  26	  93
  26	  95
  26	 104
  26	 114
  26	 132
  26	 141
  26	 147
  26	 155
  26	 172
  26	 174
  26	 177
  26	 201
  26	 215
  26	 221
  26	 224
  26	 226
  26	 227
  26	 231
  27	  43
  27	  76
  27	  82
  27	  87
  27	  91
  27	 103
  27	 106
  27	 109
  27	 113
  27	 133
  27	 142
  27	 145
  27	 170
  27	 182
  27	 197
  27	 224
  27	 225
  27	 235
  27	 240
  28	  48
  28	  53
  28	  67
  28	  72
  28	  76
  28	 105
  28	 109
  28	 115
  28	 125
  28	 131
  28	 168
  28	 171
  28	 178
  28	 189
  28	 196
  28	 201
  28	 203
  28	 206
  28	 212
  28	 217
  28	 226
  28	 241
  29	  40
  29	  47
  29	  61
  29	  74
  29	  86
  29	  91
  29	 114
  29	 133
  29	 134
  29	 143
  29	 145
  29	 171
  29	 180
  29	 191
  29	 201
  29	 211
  29	 221
  29	 224
  29	 233
  29	 245
  29	 249
  30	  38
  30	  48
  30	  49
  30	  56
  30	  72
  30	  80
  30	  96
  30	 117
  30	 138
  30	 141
  30	 180
  30	 200
  30	 207
  30	 215
  30	 222
  30	 229
  30	 234
  30	 237
  30	 245
  31	  36
  31	  59
  31	  61
  31	  70
  31	  73
  31	  76
  31	  78
  31	  81
  31	  82
  31	  93
  31	  97
  31	 113
  31	 114
  31	 120
  31	 123
  31	 128
  31	 129
  31	 138
  31	 139
  31	 143
  31	 149
  31	 150
  31	 170
  31	 171
  31	 207
  31	 215
  31	 234
  31	 238
  31	 240
  32	  40
  32	  43
  32	  44
  32	  54
  32	  58
  32	  66
  32	  81
  32	 104
  32	 109
  32	 116
  32	 122
  32	 125
  32	 136
  32	 152
  32	 156
  32	 158
  32	 159
  32	 165
  32	 168
  32	 171
  32	 173
  32	 183
  32	 186
  32	 209
  32	 219
  32	 226
  32	 237
  32	 243
  33	  38
  33	  55
  33	  60
  33	  63
  33	  66
  33	  96
  33	  98
  33	  99
  33	 106
  33	 109
  33	 118
  33	 122
  33	 134
  33	 149
  33	 194
  33	 197
  33	 200
  33	 202
  33	 208
  33	 216
  33	 220
  33	 233
  34	  38
  34	  65
  34	  69
  34	  84
  34	  86
  34	  89
  34	  92
  34	 101
  34	 106
  34	 111
  34	 113
  34	 121
  34	 130
  34	 138
  34	 151
  34	 161
  34	 165
  34	 167
  34	 179
  34	 180
  34	 185
  34	 194
  34	 196
  34	 223
  34	 226
  34	 235
  35	  36
  35	  41
  35	  53
  35	  65
  35	  79
  35	  91
  35	  98
  35	 102
  35	 113
  35	 118
  35	 121
  35	 123
  35	 124
  35	 131
  35	 145
  35	 151
  35	 152
  35	 156
  35	 163
  35	 191
  35	 194
  35	 205
  35	 232
  35	 235
  35	 243
  35	 249
  36	  59
  36	  77
  36	  78
  36	  79
  36	  94
  36	 100
  36	 111
  36	 119
  36	 130
  36	 135
  36	 141
  36	 147
  36	 154
  36	 159
  36	 173
  36	 185
  36	 187
  36	 190
  36	 192
  36	 202
  36	 203
  36	 212
  36	 226
  36	 235
  36	 238
  36	 243
  36	 244
  36	 246
  37	  41
  37	  54
  37	  65
  37	  66
  37	  67
  37	  70
  37	  88
  37	  93
  37	 101
  37	 112
  37	 122
  37	 126
  37	 151
  37	 155
  37	 174
  37	 176
  37	 191
  37	 192
  37	 205
  37	 211
  37	 239
  37	 249
  38	  42
  38	  64
  38	  91
  38	  96
  38	 107
  38	 116
  38	 122
  38	 139
  38	 155
  38	 157
  38	 172
  38	 177
  38	 182
  38	 187
  38	 192
  38	 197
  38	 201
  38	 204
  38	 215
  38	 217
  38	 225
  39	  77
  39	  82
  39	  83
  39	  84
  39	  92
  39	 105
  39	 109
  39	 133
  39	 140
  39	 147
  39	 148
  39	 164
  39	 166
  39	 168
  39	 184
  39	 187
  39	 194
  39	 200
  39	 203
  39	 206
  39	 211
  39	 216
  39	 219
  39	 234
  39	 237
  40	  53
  40	  58
  40	  86
  40	  90
  40	 113
  40	 114
  40	 123
  40	 133
  40	 141
  40	 145
  40	 164
  40	 171
  40	 182
  40	 192
  40	 200
  40	 204
  40	 209
  40	 227
  40	 240
  40	 249
  41	  48
  41	  70
  41	  75
  41	  78
  41	  90
  41	 113
  41	 115
  41	 116
  41	 120
  41	 137
  41	 153
  41	 161
  41	 177
  41	 194
  41	 202
  41	 209
  41	 223
  41	 225
  41	 228
  42	  46
  42	  47
  42	  48
  42	  54
  42	  58
  42	  63
  42	  68
  42	  85
  42	  98
  42	 125
  42	 143
  42	 151
  42	 155
  42	 167
  42	 191
  42	 192
  42	 198
  42	 201
  42	 231
  42	 242
  43	  45
  43	  69
  43	  73
  43	  74
  43	  86
  43	  88
  43	  91
  43	 115
  43	 133
  43	 135
  43	 145
  43	 146
  43	 164
  43	 165
  43	 171
  43	 173
  43	 190
  43	 212
  43	 227
  44	  52
  44	  76
  44	  84
  44	  91
  44	  97
  44	 116
  44	 124
  44	 129
  44	 135
  44	 146
  44	 166
  44	 180
  44	 186
  44	 187
  44	 198
  44	 204
  44	 218
  44	 230
  44	 234
  44	 249
  45	  46
  45	  53
  45	  57
  45	  60
  45	  61
  45	  76
  45	  80
  45	  85
  45	  87
  45	  97
  45	 106
  45	 120
  45	 127
  45	 130
  45	 134
  45	 138
  45	 149
  45	 151
  45	 178
  45	 181
  45	 204
  45	 207
  45	 220
  45	 248
  46	  52
  46	  59
  46	  63
  46	  72
  46	  75
  46	  95
  46	 118
  46	 119
  46	 124
  46	 128
  46	 129
  46	 142
  46	 154
  46	 177
  46	 183
  46	 186
  46	 201
  46	 213
  46	 216
  46	 219
  46	 236
  46	 242
  46	 248
  47	  48
  47	  59
  47	  88
  47	  90
  47	  92
  47	 103
  47	 113
  47	 114
  47	 127
  47	 128
  47	 134
  47	 140
  47	 141
  47	 149
  47	 172
  47	 182
  47	 229
  47	 237
  47	 239
  48	  73
  48	  82
  48	  88
  48	  90
  48	  92
  48	  95
  48	  98
  48	 103
  48	 104
  48	 109
  48	 113
  48	 128
  48	 137
  48	 147
  48	 175
  48	 190
  48	 197
  48	 204
  48	 206
  48	 220
  48	 230
  48	 248
  49	  60
  49	  72
  49	  87
  49	  93
  49	 104
  49	 105
  49	 119
  49	 123
  49	 129
  49	 142
  49	 180
  49	 185
  49	 195
  49	 198
  49	 236
  49	 243
  50	  64
  50	  77
  50	  94
  50	 101
  50	 112
  50	 120
  50	 150
  50	 162
  50	 182
  50	 185
  50	 203
  50	 209
  50	 215
  50	 236
  51	  58
  51	  71
  51	  78
  51	  90
  51	  94
  51	 118
  51	 120
  51	 122
  51	 138
  51	 140
  51	 142
  51	 143
  51	 148
  51	 149
  51	 160
  51	 163
  51	 168
  51	 173
  51	 191
  51	 199
  51	 211
  51	 221
  51	 241
  52	  58
  52	  65
  52	  85
  52	  97
  52	 120
  52	 131
  52	 133
  52	 135
  52	 142
  52	 143
  52	 147
  52	 149
  52	 155
  52	 162
  52	 169
  52	 175
  52	 194
  52	 204
  52	 206
  52	 215
  52	 225
  52	 232
  53	  63
  53	  65
  53	  66
  53	  76
  53	  81
  53	  90
  53	  91
  53	 108
  53	 115
  53	 121
  53	 122
  53	 127
  53	 135
  53	 139
  53	 144
  53	 153
  53	 157
  53	 160
  53	 169
  53	 172
  53	 198
  53	 199
  53	 248
  54	  57
  54	  69
  54	  70
  54	  76
  54	  80
  54	  91
  54	  96
  54	 103
  54	 112
  54	 114
  54	 125
  54	 130
  54	 132
  54	 168
  54	 172
  54	 176
  54	 177
  54	 220
  54	 222
  54	 224
  54	 226
  54	 228
  54	 231
  54	 235
  55	  59
  55	  65
  55	  84
  55	 101
  55	 128
  55	 142
  55	 162
  55	 165
  55	 171
  55	 185
  55	 191
  55	 196
  55	 197
  55	 211
  55	 212
  55	 227
  55	 236
  56	  58
  56	  62
  56	  63
  56	  80
  56	  82
  56	  88
  56	  98
  56	 106
  56	 154
  56	 168
  56	 178
  56	 180
  56	 185
  56	 210
  56	 211
  56	 217
  56	 218
  56	 220
  56	 223
  56	 239
  57	  65
  57	  72
  57	  78
  57	  82
  57	  84
  57	  88
  57	  99
  57	 118
  57	 132
  57	 143
  57	 150
  57	 160
  57	 166
  57	 169
  57	 194
  57	 195
  57	 196
  57	 198
  57	 204
  57	 216
  57	 217
  57	 248
  58	  76
  58	  77
  58	  78
  58	 108
  58	 121
  58	 132
  58	 143
  58	 198
  58	 215
  58	 225
  58	 238
  58	 239
  58	 240
  59	  63
  59	  69
  59	 106
  59	 116
  59	 131
  59	 133
  59	 142
  59	 172
  59	 202
  59	 206
  59	 235
  59	 240
  60	  66
  60	  72
  60	  92
  60	  94
  60	 105
  60	 108
  60	 110
  60	 128
  60	 141
  60	 142
  60	 147
  60	 150
  60	 162
  60	 163
  60	 165
  60	 167
  60	 168
  60	 187
  60	 203
  60	 213
  60	 216
  60	 232
  60	 239
  60	 243
  61	  62
  61	  75
  61	  79
  61	 107
  61	 108
  61	 115
  61	 117
  61	 118
  61	 126
  61	 129
  61	 138
  61	 141
  61	 144
  61	 160
  61	 172
  61	 191
  61	 195
  61	 205
  61	 222
  61	 224
  61	 235
  61	 249
  62	  63
  62	  79
  62	  85
  62	  92
  62	  99
  62	 105
  62	 116
  62	 140
  62	 145
  62	 147
  62	 160
  62	 164
  62	 177
  62	 198
  62	 202
  62	 248
  63	  92
  63	  99
  63	 104
  63	 107
  63	 118
  63	 119
  63	 137
  63	 164
  63	 173
  63	 177
  63	 188
  63	 190
  63	 195
  63	 205
  63	 213
  63	 215
  63	 231
  63	 234
  63	 249
  64	  72
  64	  74
  64	  85
  64	  96
  64	 103
  64	 108
  64	 109
  64	 112
  64	 116
  64	 133
  64	 136
  64	 139
  64	 140
  64	 142
  64	 144
  64	 162
  64	 173
  64	 181
  64	 187
  64	 193
  64	 211
  64	 218
  64	 219
  64	 225
  64	 233
  64	 240
  64	 245
  64	 246
  65	  76
  65	  84
  65	 114
  65	 116
  65	 128
  65	 135
  65	 156
  65	 177
  65	 180
  65	 187
  65	 195
  65	 219
  65	 221
  65	 223
  66	  70
  66	  77
  66	  81
  66	  98
  66	 121
  66	 136
  66	 149
  66	 155
  66	 156
  66	 164
  66	 169
  66	 170
  66	 200
  66	 208
  66	 213
  66	 217
  66	 235
  66	 241
  66	 243
  67	  91
  67	 146
  67	 160
  67	 167
  67	 173
  67	 175
  67	 179
  67	 185
  67	 188
  67	 193
  67	 233
  67	 240
  67	 242
  68	  73
  68	  81
  68	  97
  68	 101
  68	 117
  68	 126
  68	 142
  68	 144
  68	 155
  68	 161
  68	 192
  68	 202
  68	 210
  68	 217
  68	 220
  68	 227
  68	 228
  68	 231
  68	 245
  68	 246
  68	 249
  69	  91
  69	 122
  69	 123
  69	 125
  69	 132
  69	 139
  69	 145
  69	 153
  69	 155
  69	 172
  69	 177
  69	 179
  69	 190
  69	 199
  69	 206
  69	 210
  69	 214
  69	 223
  69	 230
  69	 248
  70	  83
  70	  88
  70	  89
  70	 112
  70	 118
  70	 134
  70	 146
  70	 153
  70	 163
  70	 168
  70	 180
  70	 182
  70	 196
  70	 205
  70	 209
  70	 212
  70	 214
  70	 228
  70	 236
  70	 245
  71	 109
  71	 113
  71	 124
  71	 153
  71	 157
  71	 159
  71	 164
  71	 168
  71	 176
  71	 178
  71	 181
  71	 194
  71	 198
  71	 210
  71	 241
  72	  74
  72	  77
  72	  87
  72	  96
  72	 102
  72	 126
  72	 129
  72	 131
  72	 138
  72	 146
  72	 156
  72	 178
  72	 180
  72	 206
  72	 219
  72	 244
  72	 247
  73	 101
  73	 112
  73	 116
  73	 117
  73	 133
  73	 142
  73	 148
  73	 160
  73	 173
  73	 184
  73	 193
  73	 200
  73	 202
  73	 209
  73	 210
  73	 217
  73	 220
  73	 234
  74	  85
  74	  91
  74	  92
  74	 104
  74	 110
  74	 120
  74	 155
  74	 158
  74	 163
  74	 167
  74	 170
  74	 179
  74	 182
  74	 209
  74	 216
  74	 221
  74	 231
  74	 233
  74	 247
  74	 249
  75	  78
  75	  85
  75	  87
  75	  92
  75	  93
  75	 103
  75	 122
  75	 124
  75	 131
  75	 138
  75	 151
  75	 152
  75	 162
  75	 167
  75	 168
  75	 174
  75	 217
  75	 227
  76	  78
  76	 103
  76	 114
  76	 131
  76	 141
  76	 143
  76	 156
  76	 159
  76	 160
  76	 169
  76	 188
  76	 193
  76	 194
  76	 200
  76	 201
  76	 203
  76	 210
  76	 218
  76	 220
  76	 222
  76	 233
  76	 235
  76	 249
  77	  82
  77	 107
  77	 120
  77	 122
  77	 139
  77	 163
  77	 164
  77	 179
  77	 189
  77	 190
  77	 191
  77	 196
  77	 200
  77	 213
  77	 215
  77	 225
  77	 234
  77	 239
  77	 241
  78	  86
  78	  98
  78	 112
  78	 131
  78	 134
  78	 155
  78	 162
  78	 178
  78	 183
  78	 192
  78	 198
  78	 201
  78	 218
  78	 236
  78	 238
  78	 248
  79	  85
  79	 112
  79	 116
  79	 121
  79	 132
  79	 135
  79	 140
  79	 146
  79	 165
  79	 168
  79	 174
  79	 180
  79	 188
  79	 189
  79	 193
  79	 196
  79	 199
  79	 207
  79	 208
  79	 230
  79	 231
  79	 238
  79	 239
  79	 244
  79	 245
  80	  81
  80	  83
  80	  87
  80	  88
  80	  90
  80	  94
  80	 109
  80	 114
  80	 120
  80	 127
  80	 137
  80	 142
  80	 150
  80	 163
  80	 166
  80	 170
  80	 176
  80	 203
  80	 204
  80	 215
  80	 228
  80	 249
  81	  94
  81	  96
  81	 105
  81	 107
  81	 117
  81	 120
  81	 131
  81	 184
  81	 194
  81	 204
  81	 205
  81	 213
  81	 220
  81	 230
  81	 234
  81	 243
  82	  85
  82	 104
  82	 108
  82	 132
  82	 138
  82	 166
  82	 168
  82	 184
  82	 190
  82	 206
  82	 213
  82	 214
  82	 223
  82	 237
  82	 249
  83	  99
  83	 110
  83	 116
  83	 132
  83	 136
  83	 138
  83	 162
  83	 173
  83	 174
  83	 180
  83	 204
  83	 218
  83	 239
  83	 245
  84	  96
  84	 111
  84	 127
  84	 130
  84	 131
  84	 163
  84	 169
  84	 194
  84	 195
  84	 232
  84	 238
  85	  98
  85	 102
  85	 109
  85	 131
  85	 133
  85	 136
  85	 183
  85	 188
  85	 192
  85	 193
  85	 198
  85	 206
  85	 219
  85	 232
  85	 233
  85	 243
  86	  92
  86	  99
  86	 101
  86	 112
  86	 120
  86	 124
  86	 127
  86	 134
  86	 151
  86	 155
  86	 164
  86	 167
  86	 187
  86	 188
  86	 201
  86	 203
  86	 220
  86	 239
  86	 244
  87	 137
  87	 139
  87	 144
  87	 149
  87	 150
  87	 154
  87	 163
  87	 165
  87	 179
  87	 188
  87	 190
  87	 202
  87	 215
  87	 234
  88	  98
  88	 101
  88	 177
  88	 182
  88	 191
  88	 200
  88	 207
  88	 216
  88	 220
  88	 226
  88	 240
  88	 244
  88	 247
  89	  96
  89	 105
  89	 110
  89	 111
  89	 115
  89	 143
  89	 204
  89	 216
  89	 227
  89	 229
  89	 244
  90	 100
  90	 103
  90	 123
  90	 154
  90	 161
  90	 188
  90	 189
  90	 214
  90	 226
  90	 229
  91	  95
  91	 113
  91	 115
  91	 119
  91	 149
  91	 153
  91	 162
  91	 181
  91	 197
  91	 204
  91	 206
  91	 207
  91	 233
  91	 240
  92	 110
  92	 122
  92	 125
  92	 138
  92	 146
  92	 154
  92	 164
  92	 175
  92	 187
  92	 221
  92	 231
  92	 238
  93	 108
  93	 131
  93	 144
  93	 152
  93	 157
  93	 161
  93	 180
  93	 211
  93	 218
  93	 244
  94	 100
  94	 121
  94	 138
  94	 148
  94	 149
  94	 169
  94	 170
  94	 186
  94	 189
  94	 197
  94	 201
  94	 202
  94	 210
  94	 216
  94	 232
  94	 234
  95	 109
  95	 118
  95	 164
  95	 166
  95	 188
  95	 195
  95	 197
  95	 228
  95	 229
  95	 238
  95	 249
  96	 107
  96	 117
  96	 160
  96	 189
  96	 193
  96	 196
  96	 218
  96	 221
  96	 236
  97	 111
  97	 143
  97	 160
  97	 162
  97	 168
  97	 171
  97	 174
  97	 175
  97	 180
  97	 185
  97	 194
  97	 203
  97	 213
  97	 217
  97	 221
  97	 226
  97	 237
  97	 238
  98	 103
  98	 117
  98	 126
  98	 139
  98	 144
  98	 147
  98	 149
  98	 150
  98	 155
  98	 161
  98	 168
  98	 177
  98	 184
  98	 192
  98	 196
  98	 212
  98	 215
  98	 232
  98	 247
  99	 106
  99	 110
  99	 142
  99	 145
  99	 155
  99	 159
  99	 184
  99	 204
  99	 233
  99	 242
  99	 245
  99	 247
 100	 111
 100	 113
 100	 121
 100	 123
 100	 145
 100	 147
 100	 152
 100	 162
 100	 196
 100	 198
 100	 212
 100	 238
 100	 239
 100	 243
 100	 245
 100	 246
 101	 102
 101	 114
 101	 121
 101	 130
 101	 144
 101	 153
 101	 165
 101	 172
 101	 197
 101	 201
 101	 205
 101	 216
 101	 218
 101	 221
 101	 227
 101	 242
 101	 249
 102	 112
 102	 116
 102	 125
 102	 133
 102	 144
 102	 162
 102	 176
 102	 177
 102	 183
 102	 207
 102	 208
 102	 218
 102	 231
 102	 233
 102	 244
 103	 111
 103	 112
 103	 116
 103	 129
 103	 134
 103	 136
 103	 145
 103	 150
 103	 175
 103	 182
 103	 188
 103	 227
 103	 234
 103	 240
 103	 244
 103	 246
 103	 248
 104	 108
 104	 111
 104	 136
 104	 141
 104	 169
 104	 176
 104	 178
 104	 187
 104	 196
 104	 211
 104	 219
 104	 245
 104	 249
 105	 127
 105	 131
 105	 135
 105	 138
 105	 143
 105	 152
 105	 180
 105	 190
 105	 220
 105	 224
 106	 108
 106	 110
 106	 115
 106	 116
 106	 130
 106	 133
 106	 138
 106	 145
 106	 156
 106	 164
 106	 168
 106	 240
 106	 244
 107	 133
 107	 140
 107	 215
 107	 225
 107	 230
 107	 235
 107	 241
 107	 243
 107	 245
 107	 246
 107	 247
 108	 112
 108	 117
 108	 129
 108	 142
 108	 152
 108	 159
 108	 163
 108	 172
 108	 175
 108	 177
 108	 187
 108	 188
 108	 191
 108	 195
 108	 207
 108	 210
 108	 215
 108	 219
 108	 227
 108	 234
 108	 236
 108	 245
 108	 249
 109	 113
 109	 135
 109	 142
 109	 161
 109	 178
 109	 182
 109	 188
 109	 198
 109	 237
 109	 241
 110	 115
 110	 125
 110	 192
 110	 194
 110	 207
 110	 208
 110	 227
 110	 233
 110	 243
 111	 117
 111	 123
 111	 152
 111	 154
 111	 179
 111	 182
 111	 194
 111	 208
 111	 213
 111	 219
 111	 231
 112	 120
 112	 140
 112	 151
 112	 152
 112	 162
 112	 172
 112	 183
 112	 186
 112	 194
 112	 199
 112	 208
 112	 219
 113	 121
 113	 123
 113	 125
 113	 131
 113	 137
 113	 155
 113	 162
 113	 167
 113	 171
 113	 173
 113	 178
 113	 193
 113	 213
 113	 231
 113	 233
 114	 115
 114	 119
 114	 126
 114	 129
 114	 137
 114	 173
 114	 192
 114	 197
 114	 206
 114	 207
 114	 226
 114	 230
 114	 233
 114	 238
 114	 241
 114	 244
 115	 120
 115	 196
 115	 197
 115	 199
 115	 214
 115	 215
 115	 217
 115	 223
 115	 231
 115	 238
 115	 246
 116	 118
 116	 128
 116	 135
 116	 142
 116	 144
 116	 146
 116	 157
 116	 161
 116	 164
 116	 168
 116	 169
 116	 171
 116	 187
 116	 196
 116	 202
 116	 217
 116	 226
 116	 228
 116	 236
 116	 248
 117	 120
 117	 136
 117	 137
 117	 138
 117	 140
 117	 142
 117	 155
 117	 164
 117	 178
 117	 183
 117	 189
 117	 208
 117	 209
 117	 215
 117	 221
 117	 225
 117	 230
 117	 231
 117	 241
 118	 122
 118	 126
 118	 130
 118	 131
 118	 135
 118	 141
 118	 149
 118	 199
 118	 209
 118	 218
 118	 219
 118	 231
 118	 240
 119	 123
 119	 139
 119	 151
 119	 154
 119	 160
 119	 162
 119	 181
 119	 185
 119	 192
 119	 216
 119	 219
 119	 221
 120	 124
 120	 134
 120	 156
 120	 160
 120	 166
 120	 171
 120	 195
 120	 210
 120	 222
 120	 229
 120	 240
 121	 139
 121	 141
 121	 156
 121	 163
 121	 177
 121	 180
 121	 181
 121	 185
 121	 190
 121	 205
 121	 206
 121	 215
 121	 216
 121	 217
 121	 247
 122	 138
 122	 139
 122	 146
 122	 179
 122	 182
 122	 187
 122	 205
 122	 206
 122	 211
 122	 215
 122	 218
 122	 220
 122	 224
 122	 226
 122	 239
 123	 133
 123	 157
 123	 166
 123	 182
 123	 187
 123	 196
 123	 210
 123	 227
 123	 230
 123	 235
 123	 246
 124	 125
 124	 133
 124	 134
 124	 136
 124	 158
 124	 180
 124	 188
 124	 191
 124	 193
 124	 209
 124	 228
 125	 126
 125	 137
 125	 153
 125	 175
 125	 208
 125	 215
 125	 232
 125	 234
 125	 235
 125	 239
 125	 240
 125	 244
 126	 132
 126	 140
 126	 158
 126	 166
 126	 169
 126	 177
 126	 192
 126	 197
 126	 205
 126	 209
 126	 211
 126	 236
 127	 129
 127	 141
 127	 155
 127	 169
 127	 178
 127	 208
 127	 210
 127	 216
 127	 220
 127	 221
 127	 229
 127	 231
 127	 249
 128	 135
 128	 136
 128	 139
 128	 140
 128	 145
 128	 156
 128	 165
 128	 174
 128	 182
 128	 191
 128	 208
 128	 212
 128	 218
 128	 240
 128	 248
 129	 133
 129	 141
 129	 152
 129	 163
 129	 169
 129	 176
 129	 177
 129	 208
 129	 211
 129	 213
 129	 214
 129	 224
 130	 134
 130	 136
 130	 146
 130	 170
 130	 176
 130	 179
 130	 183
 130	 207
 130	 209
 130	 214
 130	 232
 130	 243
 130	 249
 131	 133
 131	 138
 131	 143
 131	 153
 131	 167
 131	 172
 131	 195
 131	 207
 131	 213
 131	 227
 131	 231
 131	 233
 131	 238
 132	 141
 132	 142
 132	 144
 132	 148
 132	 158
 132	 159
 132	 202
 132	 203
 132	 206
 132	 207
 132	 213
 132	 218
 132	 242
 132	 244
 132	 249
 133	 136
 133	 139
 133	 168
 133	 172
 133	 173
 133	 175
 133	 185
 133	 186
 133	 187
 133	 199
 133	 219
 133	 233
 133	 235
 134	 138
 134	 141
 134	 161
 134	 165
 134	 174
 134	 191
 134	 196
 134	 214
 134	 226
 134	 233
 134	 240
 134	 245
 134	 248
 135	 137
 135	 156
 135	 194
 135	 200
 135	 222
 135	 225
 135	 231
 135	 232
 135	 247
 135	 249
 136	 140
 136	 148
 136	 151
 136	 156
 136	 157
 136	 179
 136	 190
 136	 193
 136	 209
 136	 214
 136	 228
 136	 238
 136	 239
 136	 246
 137	 140
 137	 152
 137	 163
 137	 168
 137	 189
 137	 191
 137	 200
 137	 223
 137	 226
 137	 236
 138	 143
 138	 144
 138	 149
 138	 153
 138	 159
 138	 160
 138	 168
 138	 171
 138	 174
 138	 176
 138	 183
 138	 185
 138	 193
 138	 217
 138	 218
 138	 221
 138	 233
 138	 235
 138	 244
 139	 156
 139	 165
 139	 171
 139	 177
 139	 192
 139	 220
 139	 226
 139	 234
 139	 235
 139	 242
 140	 150
 140	 156
 140	 182
 140	 227
 140	 235
 140	 237
 140	 242
 140	 245
 141	 159
 141	 167
 141	 181
 141	 194
 141	 207
 141	 211
 141	 227
 142	 147
 142	 149
 142	 150
 142	 154
 142	 155
 142	 158
 142	 165
 142	 169
 142	 184
 142	 195
 142	 201
 142	 246
 143	 148
 143	 172
 143	 173
 143	 186
 143	 187
 143	 191
 143	 193
 143	 214
 143	 215
 143	 222
 143	 243
 144	 149
 144	 159
 144	 168
 144	 175
 144	 177
 144	 193
 144	 194
 144	 195
 144	 220
 145	 168
 145	 193
 145	 236
 145	 247
 146	 150
 146	 155
 146	 159
 146	 170
 146	 200
 146	 202
 146	 204
 146	 206
 146	 212
 146	 214
 146	 222
 146	 224
 146	 246
 147	 160
 147	 175
 147	 181
 147	 203
 147	 219
 147	 234
 147	 237
 147	 239
 147	 246
 147	 249
 148	 150
 148	 161
 148	 165
 148	 177
 148	 181
 148	 185
 148	 192
 148	 193
 148	 204
 148	 215
 148	 227
 148	 228
 148	 231
 148	 233
 148	 246
 149	 152
 149	 162
 149	 168
 149	 179
 149	 182
 149	 195
 149	 225
 149	 232
 149	 241
 150	 166
 150	 168
 150	 190
 150	 198
 150	 206
 150	 210
 151	 170
 151	 174
 151	 177
 151	 189
 151	 212
 151	 230
 151	 233
 151	 237
 152	 156
 152	 159
 152	 162
 152	 164
 152	 172
 152	 173
 152	 179
 152	 190
 152	 194
 152	 204
 152	 209
 152	 218
 152	 219
 152	 221
 152	 236
 152	 237
 152	 245
 152	 248
 153	 160
 153	 164
 153	 166
 153	 181
 153	 190
 153	 205
 153	 223
 153	 243
 154	 172
 154	 181
 154	 190
 154	 211
 154	 219
 154	 227
 154	 230
 154	 246
 155	 157
 155	 168
 155	 188
 155	 205
 155	 219
 155	 226
 155	 228
 155	 236
 156	 163
 156	 167
 156	 207
 156	 238
 156	 246
 157	 159
 157	 162
 157	 181
 157	 182
 157	 187
 157	 193
 157	 203
 157	 205
 157	 207
 157	 215
 157	 223
 157	 233
 157	 240
 157	 241
 157	 248
 158	 171
 158	 174
 158	 195
 158	 206
 158	 215
 158	 222
 158	 233
 158	 238
 159	 162
 159	 178
 159	 181
 159	 195
 159	 197
 159	 199
 159	 220
 159	 241
 160	 165
 160	 166
 160	 176
 160	 185
 160	 186
 160	 212
 160	 217
 160	 223
 160	 233
 160	 238
 160	 243
 160	 249
 161	 171
 161	 180
 161	 189
 161	 207
 161	 209
 161	 222
 161	 228
 161	 231
 162	 166
 162	 202
 162	 212
 162	 215
 162	 238
 162	 244
 162	 245
 163	 164
 163	 169
 163	 170
 163	 180
 163	 193
 163	 200
 163	 220
 163	 223
 164	 166
 164	 169
 164	 177
 164	 180
 164	 202
 164	 209
 164	 212
 164	 217
 164	 225
 164	 227
 164	 245
 165	 177
 165	 178
 165	 198
 165	 224
 165	 241
 166	 171
 166	 174
 166	 186
 166	 190
 166	 202
 166	 207
 166	 215
 166	 227
 166	 234
 166	 245
 167	 173
 167	 182
 167	 186
 167	 190
 167	 205
 167	 212
 167	 221
 167	 230
 167	 244
 167	 245
 168	 169
 168	 172
 168	 181
 168	 182
 168	 187
 168	 194
 168	 206
 168	 212
 168	 242
 168	 247
 169	 183
 169	 184
 169	 189
 169	 193
 169	 202
 169	 210
 169	 213
 169	 217
 169	 228
 169	 230
 169	 232
 169	 234
 170	 176
 170	 179
 170	 198
 170	 205
 170	 225
 170	 236
 171	 186
 171	 217
 171	 225
 171	 228
 172	 176
 172	 186
 172	 190
 172	 217
 172	 231
 172	 232
 172	 236
 172	 245
 173	 176
 173	 177
 173	 198
 173	 202
 173	 216
 173	 227
 173	 241
 173	 247
 174	 184
 174	 191
 174	 195
 174	 209
 174	 216
 174	 217
 174	 227
 174	 230
 174	 233
 174	 238
 175	 176
 175	 188
 175	 198
 175	 199
 175	 218
 175	 220
 175	 230
 176	 183
 176	 198
 176	 221
 176	 224
 176	 244
 177	 183
 177	 184
 177	 198
 178	 185
 178	 186
 178	 195
 178	 198
 178	 204
 178	 208
 178	 241
 178	 243
 178	 246
 179	 180
 179	 181
 179	 185
 179	 186
 179	 217
 179	 221
 179	 228
 179	 232
 179	 245
 180	 191
 180	 192
 180	 209
 180	 214
 180	 218
 180	 223
 180	 226
 180	 235
 180	 239
 181	 184
 181	 187
 181	 192
 181	 194
 181	 196
 181	 212
 181	 231
 181	 232
 181	 235
 182	 195
 182	 202
 182	 207
 182	 221
 182	 224
 182	 225
 182	 233
 182	 245
 183	 195
 183	 196
 183	 199
 183	 211
 183	 212
 183	 246
 184	 192
 184	 195
 184	 219
 184	 222
 184	 225
 184	 237
 184	 248
 185	 192
 185	 201
 185	 212
 185	 214
 185	 216
 185	 232
 185	 234
 185	 248
 186	 188
 186	 202
 186	 203
 186	 227
 186	 229
 186	 238
 187	 189
 187	 217
 187	 230
 187	 241
 188	 192
 188	 196
 188	 201
 188	 206
 188	 216
 188	 220
 188	 230
 188	 235
 188	 241
 189	 194
 189	 203
 189	 204
 189	 213
 189	 228
 189	 230
 190	 195
 190	 207
 190	 216
 190	 225
 190	 229
 190	 241
 190	 245
 191	 221
 191	 226
 191	 246
 192	 199
 192	 201
 192	 203
 192	 219
 192	 238
 192	 239
 192	 242
 193	 218
 193	 225
 193	 226
 194	 212
 194	 222
 194	 242
 194	 248
 196	 229
 197	 212
 197	 235
 198	 201
 198	 204
 198	 224
 198	 231
 198	 238
 198	 239
 199	 202
 199	 206
 199	 233
 199	 236
 199	 239
 200	 226
 200	 228
 200	 240
 201	 205
 201	 212
 201	 227
 201	 231
 201	 240
 201	 248
 202	 203
 202	 244
 203	 214
 203	 221
 203	 238
 203	 239
 203	 241
 203	 246
 204	 214
 204	 236
 204	 237
 204	 242
 204	 246
 205	 210
 205	 232
 205	 234
 205	 242
 206	 216
 206	 233
 206	 236
 206	 248
 207	 226
 207	 238
 208	 240
 209	 222
 209	 224
 210	 214
 210	 215
 210	 220
 210	 226
 210	 237
 211	 225
 211	 229
 211	 230
 211	 232
 211	 240
 211	 243
 212	 216
 212	 217
 212	 223
 212	 232
 212	 239
 212	 247
 213	 223
 213	 226
 213	 239
 214	 220
 214	 224
 214	 225
 214	 240
 214	 247
 214	 248
 215	 222
 215	 231
 215	 235
 216	 223
 216	 226
 216	 230
 217	 238
 218	 235
 218	 243
 219	 235
 219	 248
 220	 222
 220	 227
 220	 229
 220	 231
 220	 246
 221	 222
 221	 223
 221	 239
 222	 226
 223	 232
 223	 236
 223	 239
 223	 248
 224	 225
 224	 233
 224	 240
 224	 246
 224	 248
 225	 236
 226	 230
 227	 232
 227	 233
 227	 238
 227	 242
 227	 244
 228	 241
 229	 239
 229	 246
 230	 231
 230	 235
 230	 241
 231	 232
 231	 240
 231	 241
 232	 247
 233	 244
 235	 236
 236	 239
 236	 243
 236	 245
 237	 238
 237	 239
 238	 242
 240	 244
 241	 243
 241	 246
 242	 245
 242	 246
 242	 248
;
